
Gurobi 6.0.5 (linux64) logging started Fri Oct 20 12:48:43 2017


Gurobi 6.0.5 (linux64) logging started Fri Oct 20 12:48:43 2017


Gurobi 6.0.5 (linux64) logging started Fri Oct 20 12:48:43 2017


Gurobi 6.0.5 (linux64) logging started Fri Oct 20 12:48:43 2017


Gurobi 6.0.5 (linux64) logging started Fri Oct 20 12:48:44 2017


Gurobi 6.0.5 (linux64) logging started Fri Oct 20 12:48:44 2017


Gurobi 6.0.5 (linux64) logging started Fri Oct 20 12:48:44 2017


Gurobi 6.0.5 (linux64) logging started Fri Oct 20 12:48:44 2017


Gurobi 6.0.5 (linux64) logging started Fri Oct 20 12:48:44 2017

